82
2
0 4 5 6 7 8 12 14 15 17 18 19 20 21 22 23 25 26 27 28 29 30 31 32 33 34 36 37 38 39 40 41 42 45 48 49 50 51 52 54 55 56 57 58 59 62 64 66 68 70 71 72 73 74 75 76 77 79 80
1 2 3 6 9 10 11 12 13 16 18 20 22 23 24 27 28 29 31 32 35 36 39 41 43 44 46 47 50 53 54 55 58 60 61 63 65 66 67 69 75 78 81
